
<<< setup


<<< generate

Version identifier: 22.1.1.0 | 2022-11-28 | 9160aff4d
CPXPARAM_TimeLimit                               1800
Found incumbent of value 0.000000 after 0.01 sec. (11.26 ticks)
Tried aggregator 1 time.
MIP Presolve eliminated 837 rows and 0 columns.
Reduced MIP has 435765 rows, 349866 columns, and 1568754 nonzeros.
Reduced MIP has 349030 binaries, 836 generals, 0 SOSs, and 0 indicators.
Presolve time = 0.31 sec. (581.79 ticks)
Probing time = 0.15 sec. (97.12 ticks)
Tried aggregator 1 time.
Detecting symmetries...
Reduced MIP has 435765 rows, 349866 columns, and 1568754 nonzeros.
Reduced MIP has 349030 binaries, 836 generals, 0 SOSs, and 0 indicators.
Presolve time = 5.67 sec. (3100.75 ticks)
Probing time = 0.14 sec. (97.07 ticks)
Clique table members: 10518.
MIP emphasis: balance optimality and feasibility.
MIP search method: dynamic search.
Parallel mode: deterministic, using up to 8 threads.
Root relaxation solution time = 119.19 sec. (163023.80 ticks)

        Nodes                                         Cuts/
   Node  Left     Objective  IInf  Best Integer    Best Bound    ItCnt     Gap

*     0+    0                            0.0000    19670.0000              --- 
*     0+    0                          100.0000    19670.0000              --- 
      0     0    19670.0000 112556      100.0000    19670.0000   224105     --- 
*     0+    0                          759.0000    19670.0000              --- 
      0     0    19670.0000 74044      759.0000   Cuts: 10000   246613     --- 
      0     0    19670.0000 59363      759.0000    Cuts: 8618   265574     --- 
      0     0    19670.0000 57324      759.0000    Cuts: 1390   269934     --- 
      0     0    19670.0000 56764      759.0000     Cuts: 859   272553     --- 
      0     0    19670.0000 57030      759.0000     Cuts: 572   274373     --- 
      0     0    19670.0000 44861      759.0000     Cuts: 161   283248     --- 
*     0+    0                          853.0000    19670.0000              --- 
      0     0        cutoff            853.0000    19670.0000   283248     --- 
      0     0    19670.0000 43733      853.0000     Cuts: 756   285687     --- 
      0     0    19670.0000 43382      853.0000     Cuts: 567   287556     --- 
      0     0    19670.0000 43285      853.0000     Cuts: 570   289415     --- 
*     0+    0                          984.0000    19670.0000              --- 
*     0+    0                         1070.0000    19670.0000              --- 
*     0+    0                         1146.0000    19670.0000              --- 
*     0+    0                         1196.0000    19670.0000              --- 
      0     0        cutoff           1196.0000    19670.0000   289415     --- 
      0     0    19670.0000 42578     1196.0000     Cuts: 362   292748     --- 
      0     0    19670.0000 43058     1196.0000     Cuts: 771   295548     --- 
Heuristic still looking.
*     0+    0                         2403.0000    19670.0000           718.56%
*     0+    0                         2438.0000    19670.0000           706.81%
*     0+    0                         2638.0000    19670.0000           645.64%
      0     0        cutoff           2638.0000    19670.0000   295548  645.64%
      0     2    19670.0000 37348     2638.0000    19670.0000   295548  645.64%
Elapsed time = 953.11 sec. (1106033.81 ticks, tree = 0.02 MB, solutions = 11)
      1     3    19670.0000 37746     2638.0000    19670.0000   296125  645.64%
      2     4    19670.0000 37411     2638.0000    19670.0000   296443  645.64%
      3     5    19670.0000 37302     2638.0000    19670.0000   296840  645.64%
      4     6    19670.0000 37163     2638.0000    19670.0000   297202  645.64%
      5     3    19670.0000 37346     2638.0000    19670.0000   295550  645.64%
      7     8    19670.0000 37744     2638.0000    19670.0000   297826  645.64%
      8     9    19670.0000 35805     2638.0000    19670.0000   298039  645.64%
      9    10    19670.0000 37391     2638.0000    19670.0000   298524  645.64%
     10    11    19670.0000 35710     2638.0000    19670.0000   298988  645.64%
     14    13    19670.0000 37005     2638.0000    19670.0000   299528  645.64%
Elapsed time = 980.34 sec. (1122474.85 ticks, tree = 9.42 MB, solutions = 11)
     15    15    19670.0000 36910     2638.0000    19670.0000   300183  645.64%
     17    17    19670.0000 36771     2638.0000    19670.0000   300581  645.64%
     19    19    19670.0000 36566     2638.0000    19670.0000   300871  645.64%
     20    20    19670.0000 36467     2638.0000    19670.0000   301164  645.64%
     22    22    19670.0000 36374     2638.0000    19670.0000   301436  645.64%
     23    23    19670.0000 36287     2638.0000    19670.0000   301701  645.64%
     24    24    19670.0000 36216     2638.0000    19670.0000   301967  645.64%
     25    25    19670.0000 36127     2638.0000    19670.0000   302227  645.64%
     28    28    19670.0000 36053     2638.0000    19670.0000   302476  645.64%
     30    30    19670.0000 35949     2638.0000    19670.0000   302732  645.64%
Elapsed time = 1058.32 sec. (1140847.56 ticks, tree = 59.70 MB, solutions = 11)
     31    15    19670.0000 35706     2638.0000    19670.0000   299295  645.64%
     33    35    19670.0000 35609     2638.0000    19670.0000   303044  645.64%
     35     4    19670.0000 37746     2638.0000    19670.0000   296127  645.64%
     36    35    19670.0000 38220     2638.0000    19670.0000   303342  645.64%
     39    37    19670.0000 38234     2638.0000    19670.0000   303961  645.64%
     41     5    19670.0000 37411     2638.0000    19670.0000   296445  645.64%
     42     8    19670.0000 37344     2638.0000    19670.0000   297208  645.64%
     44    45    19670.0000 32672     2638.0000    19670.0000   325032  645.64%
     45    46    19670.0000 32653     2638.0000    19670.0000   325272  645.64%
     47    36    19670.0000 33184     2638.0000    19670.0000   319176  645.64%
Elapsed time = 1199.38 sec. (1203071.58 ticks, tree = 50.57 MB, solutions = 11)
     48    40    19670.0000 35329     2638.0000    19670.0000   325046  645.64%
     49    47    19670.0000 35236     2638.0000    19670.0000   341288  645.64%
     50    40    19670.0000 37110     2638.0000    19670.0000   329043  645.64%
     51    48    19670.0000 35140     2638.0000    19670.0000   341679  645.64%
     53    49    19670.0000 37380     2638.0000    19670.0000   355311  645.64%
     54    49    19670.0000 35028     2638.0000    19670.0000   342047  645.64%
     57    51    19670.0000 37128     2638.0000    19670.0000   355397  645.64%
     59    48    19670.0000 32539     2638.0000    19670.0000   333042  645.64%
     63    54    19670.0000 37154     2638.0000    19670.0000   355927  645.64%
     67    56    19670.0000 37152     2638.0000    19670.0000   356404  645.64%
Elapsed time = 1233.43 sec. (1236204.27 ticks, tree = 85.32 MB, solutions = 11)
     70    60    19670.0000 34588     2638.0000    19670.0000   365853  645.64%
     72    57    19670.0000 37574     2638.0000    19670.0000   357267  645.64%
     75    67    19670.0000 37150     2638.0000    19670.0000   367001  645.64%
     77    74    19670.0000 36240     2638.0000    19670.0000   369571  645.64%
     80    76    19670.0000 36238     2638.0000    19670.0000   369575  645.64%
     83    70    19670.0000 36708     2638.0000    19670.0000   367662  645.64%
     85    78    19670.0000 35912     2638.0000    19670.0000   369975  645.64%
     91    81    19670.0000 35771     2638.0000    19670.0000   370125  645.64%
     94    83    19670.0000 35653     2638.0000    19670.0000   370397  645.64%
     98    73    19670.0000 36405     2638.0000    19670.0000   368531  645.64%
Elapsed time = 1261.89 sec. (1251052.10 ticks, tree = 107.80 MB, solutions = 11)
    100    83    19670.0000 33843     2638.0000    19670.0000   372691  645.64%
    103   100    19670.0000 35450     2638.0000    19670.0000   374521  645.64%
    106   102    19670.0000 35383     2638.0000    19670.0000   374683  645.64%
    110   104    19670.0000 35227     2638.0000    19670.0000   374936  645.64%
    114   106    19670.0000 35030     2638.0000    19670.0000   375073  645.64%
    118    90    19670.0000 35971     2638.0000    19670.0000   374744  645.64%
    120   110    19670.0000 34936     2638.0000    19670.0000   375154  645.64%
    126    93    19670.0000 35868     2638.0000    19670.0000   375076  645.64%
    131   116    19670.0000 34928     2638.0000    19670.0000   375166  645.64%
    135   119    19670.0000 34926     2638.0000    19670.0000   375172  645.64%
Elapsed time = 1298.38 sec. (1263687.20 ticks, tree = 221.19 MB, solutions = 11)
    139    97    19670.0000 35741     2638.0000    19670.0000   375329  645.64%
    145   100    19670.0000 35735     2638.0000    19670.0000   375335  645.64%
    149   111    19670.0000 32974     2638.0000    19670.0000   378147  645.64%
    152   135    19670.0000 34792     2638.0000    19670.0000   377318  645.64%
    155   137    19670.0000 34788     2638.0000    19670.0000   377323  645.64%
    160   140    19670.0000 34745     2638.0000    19670.0000   377365  645.64%
    163   143    19670.0000 34743     2638.0000    19670.0000   377371  645.64%
    166   145    19670.0000 34642     2638.0000    19670.0000   377467  645.64%
    169   145    19670.0000 32556     2638.0000    19670.0000   380276  645.64%
    170   147    19670.0000 34513     2638.0000    19670.0000   377622  645.64%
Elapsed time = 1315.37 sec. (1275974.35 ticks, tree = 290.57 MB, solutions = 11)
    173   150    19670.0000 34450     2638.0000    19670.0000   377696  645.64%
    177   153    19670.0000 34448     2638.0000    19670.0000   377702  645.64%
    180   148    19670.0000 32489     2638.0000    19670.0000   380583  645.64%
    185   151    19670.0000 32483     2638.0000    19670.0000   380589  645.64%
    188   167    19670.0000 34288     2638.0000    19670.0000   380527  645.64%
    191   169    19670.0000 34234     2638.0000    19670.0000   380728  645.64%
    195   172    19670.0000 34173     2638.0000    19670.0000   380772  645.64%
    200   178    19670.0000 32414     2638.0000    19670.0000   391633  645.64%
    203   177    19670.0000 34147     2638.0000    19670.0000   380819  645.64%
    205   179    19670.0000 34124     2638.0000    19670.0000   380891  645.64%
Elapsed time = 1337.36 sec. (1288107.92 ticks, tree = 372.35 MB, solutions = 11)
    209   181    19670.0000 34026     2638.0000    19670.0000   380984  645.64%
    213   181    19670.0000 32280     2638.0000    19670.0000   392205  645.64%
    218   185    19670.0000 33864     2638.0000    19670.0000   381156  645.64%
    221   185    19670.0000 32274     2638.0000    19670.0000   392213  645.64%
    226   190    19670.0000 33784     2638.0000    19670.0000   381283  645.64%
    230   206    19670.0000 33750     2638.0000    19670.0000   392567  645.64%
    234   189    19670.0000 32079     2638.0000    19670.0000   392712  645.64%
    238   210    19670.0000 33657     2638.0000    19670.0000   392751  645.64%
    242   213    19670.0000 33653     2638.0000    19670.0000   392757  645.64%
    247   219    19670.0000 32017     2638.0000    19670.0000   393852  645.64%
Elapsed time = 1359.78 sec. (1300750.18 ticks, tree = 413.24 MB, solutions = 11)
    252   219    19670.0000 33647     2638.0000    19670.0000   392769  645.64%
    255   187    19670.0000 36124     2638.0000    19670.0000   394199  645.64%
    262   224    19670.0000 33643     2638.0000    19670.0000   392779  645.64%
    267   226    19670.0000 33639     2638.0000    19670.0000   392783  645.64%
    274   229    19670.0000 33635     2638.0000    19670.0000   392789  645.64%
    278   231    19670.0000 33631     2638.0000    19670.0000   392793  645.64%
    287     6    19670.0000 37302     2638.0000    19670.0000   296842  645.64%
    291   239    19670.0000 35660     2638.0000    19670.0000   396694  645.64%
    296    41    19670.0000 35101     2638.0000    19670.0000   336403  645.64%
    317   236    19670.0000 36841     2638.0000    19670.0000   397569  645.64%
Elapsed time = 1383.95 sec. (1315290.83 ticks, tree = 407.51 MB, solutions = 11)
    339   284    19670.0000 31426     2638.0000    19670.0000   420067  645.64%
    362   312    19670.0000 35050     2638.0000    19670.0000   420756  645.64%
    387   320    19670.0000 34913     2638.0000    19670.0000   420961  645.64%
    403   328    19670.0000 34805     2638.0000    19670.0000   421087  645.64%
    412   301    19670.0000 30997     2638.0000    19670.0000   421219  645.64%
    422   347    19670.0000 30913     2638.0000    19670.0000   424768  645.64%
    431   376    19670.0000 34293     2638.0000    19670.0000   426886  645.64%
    443   382    19670.0000 34052     2638.0000    19670.0000   427429  645.64%
    451   384    19670.0000 33997     2638.0000    19670.0000   427536  645.64%
    467   393    19670.0000 33946     2638.0000    19670.0000   427629  645.64%
Elapsed time = 1469.34 sec. (1355849.30 ticks, tree = 798.29 MB, solutions = 11)
    476   399    19670.0000 33818     2638.0000    19670.0000   427745  645.64%
    491   406    19670.0000 30446     2638.0000    19670.0000   432688  645.64%
    507   411    19670.0000 30360     2638.0000    19670.0000   432918  645.64%
    527   467    19670.0000 32996     2638.0000    19670.0000   436086  645.64%
    547   475    19670.0000 32984     2638.0000    19670.0000   436102  645.64%
    566   448    19670.0000 35108     2638.0000    19670.0000   437485  645.64%
    580   488    19670.0000 32974     2638.0000    19670.0000   436128  645.64%
    606   522    19670.0000 32819     2638.0000    19670.0000   438679  645.64%
    624   500    19670.0000 32870     2638.0000    19670.0000   436403  645.64%
    647   504    19670.0000 29766     2638.0000    19670.0000   437840  645.64%
Elapsed time = 1537.92 sec. (1395264.12 ticks, tree = 1097.39 MB, solutions = 11)
    668   585    19670.0000 32699     2638.0000    19670.0000   442245  645.64%
    690   511    19670.0000 29704     2638.0000    19670.0000   437937  645.64%
    704   554    19670.0000 32680     2638.0000    19670.0000   439000  645.64%
    714   598    19670.0000 32190     2638.0000    19670.0000   443427  645.64%
    725   648    19670.0000 35056     2638.0000    19670.0000   472873  645.64%
    727   678    19670.0000 31623     2638.0000    19670.0000   475624  645.64%
    732   682    19670.0000 30896     2638.0000    19670.0000   476191  645.64%
    738   687    19670.0000 30888     2638.0000    19670.0000   476420  645.64%
    745   694    19670.0000 30676     2638.0000    19670.0000   477224  645.64%
    752   700    19670.0000 30494     2638.0000    19670.0000   477533  645.64%
Elapsed time = 1637.26 sec. (1436959.71 ticks, tree = 1545.04 MB, solutions = 11)
    754   702    19670.0000 29902     2638.0000    19670.0000   478546  645.64%
    759   707    19670.0000 29849     2638.0000    19670.0000   479219  645.64%
    763   743    19670.0000 29474     2638.0000    19670.0000   487533  645.64%
    765   682    19670.0000 33189     2638.0000    19670.0000   487135  645.64%
    768   711    19670.0000 31679     2638.0000    19670.0000   488947  645.64%
    772   746    19670.0000 31604     2638.0000    19670.0000   501290  645.64%
    777   751    19670.0000 31560     2638.0000    19670.0000   501412  645.64%
Starting limited solution polishing.
    783   756    19670.0000 31279     2638.0000    19670.0000   502037  645.64%
    788   742    19670.0000 32428     2638.0000    19670.0000   498255  645.64%
    799   767    19670.0000 31035     2638.0000    19670.0000   502910  645.64%
Elapsed time = 1732.47 sec. (1484759.10 ticks, tree = 1709.54 MB, solutions = 11)
    806   760    19670.0000 32094     2638.0000    19670.0000   530560  645.64%
    809   762    19670.0000 31892     2638.0000    19670.0000   531161  645.64%
    817   762    19670.0000 28914     2638.0000    19670.0000   547636  645.64%
    826   770    19670.0000 31498     2638.0000    19670.0000   532434  645.64%
    833   773    19670.0000 31318     2638.0000    19670.0000   533087  645.64%
    838   774    19670.0000 28383     2638.0000    19670.0000   548799  645.64%
    850   782    19670.0000 28241     2638.0000    19670.0000   548983  645.64%
    860   786    19670.0000 30865     2638.0000    19670.0000   551154  645.64%

Clique cuts applied:  1
Cover cuts applied:  2
Implied bound cuts applied:  119
Mixed integer rounding cuts applied:  77
Zero-half cuts applied:  271
Lift and project cuts applied:  2

Root node processing (before b&c):
  Real time             =  952.33 sec. (1105311.65 ticks)
Parallel b&c, 8 threads:
  Real time             =  848.85 sec. (440125.52 ticks)
  Sync time (average)   =  113.72 sec.
  Wait time (average)   =    0.00 sec.
                          ------------
Total (root+branch&cut) = 1801.18 sec. (1545437.18 ticks)

<<< solve


OBJECTIVE: 2638

<<< post process


<<< done

